Route 1: 4 92 182 161 169 24 131 48 156 102 183 15 179 124 43 47 63 162 49 150 187 163 28 153 6 14 132 78 171 130 142 72 119 98 16 95 198 41 129 23 166 194 154 158 70 55 81 157 33 107 66 82 67 30 64
Route 2: 140 54 100 37 9 177 128 151 112 165 85 56 32 38 108 45 114 86 21 139 29 188 173 143 59 12 89 87 176 88 144 71 69 191 113 58 134 137 123 11 115 121 17 174 97 13 8 60 1 76 2 185 135 96 34 175 39 36
Route 3: 42 172 197 5 149 195 57 133 147 40 152 167 27 190 184 196 18 68 7 110 180 3 136 200 103 51 22 106 61 91 111 145 80 116 44 178 90 73 79 126 93 146 19 193 141 120 75 83 148
Route 4: 155 127 105 118 199 84 181 170 122 35 164 104 25 138 46 62 77 10 26 159 20 186 117 52 74 50 192 189 125 101
Route 5: 31 53 160 94 168 99 109 65
Vehicles: 5
Distance: 3738.95
